DIMENSION: 28
EDGE_WEIGHT_TYPE: EXPLICIT
EDGE_WEIGHT_FORMAT: FULL_MATRIX
EDGE_WEIGHT_SECTION:
32767 32 32767 32767 32767 32767 36 74 32767 25 32767 33 32767 32767 32767 32767 79 32767 40 99 38 7 32767 32767 73 32767 32767 14 
32 32767 32767 32767 44 32767 28 32767 32767 32767 32767 48 32767 32767 22 97 23 32767 32767 32767 32767 32767 69 32767 32767 32767 59 32767 
32767 32767 32767 18 44 92 32767 32767 7 32767 5 32767 54 32767 56 26 32767 32767 32767 32767 32767 49 32767 51 32767 32767 32767 32767 
32767 32767 18 32767 32767 32767 32767 32767 32767 32767 32767 32767 32767 32767 69 32767 76 51 32767 32767 32767 32767 32767 32767 18 32767 32767 32767 
32767 44 44 32767 32767 32767 57 28 32767 32767 21 32767 36 43 77 32 19 32767 69 49 32767 18 32767 32767 16 32767 32767 32767 
32767 32767 92 32767 32767 32767 32767 93 32767 12 32767 32767 32767 32767 32767 32767 98 32767 32767 39 32767 32767 32767 32767 32767 81 32767 96 
36 28 32767 32767 57 32767 32767 32767 32767 32767 32767 81 32767 92 16 32767 32767 32767 6 32767 32767 32767 32767 32767 35 83 32767 63 
74 32767 32767 32767 28 93 32767 32767 32767 32767 32767 32767 32767 32767 32767 32767 90 32767 32767 32767 32767 32767 32767 32767 32767 32767 32767 32767 
32767 32767 7 32767 32767 32767 32767 32767 32767 32767 32767 32767 32767 32767 32767 32767 32767 8 32767 32767 49 62 92 83 61 32767 32767 33 
25 32767 32767 32767 32767 12 32767 32767 32767 32767 95 32767 73 32767 32767 85 32767 32767 32767 32767 86 32767 32767 32767 46 32767 37 32767 
32767 32767 5 32767 21 32767 32767 32767 32767 95 32767 32767 32767 72 32767 32767 32767 32767 23 22 32767 26 33 32767 32767 32767 32767 61 
33 48 32767 32767 32767 32767 81 32767 32767 32767 32767 32767 32767 32767 32767 32767 32767 97 57 90 31 32767 32767 32767 32767 27 5 32767 
32767 32767 54 32767 36 32767 32767 32767 32767 73 32767 32767 32767 32767 96 32767 32767 95 26 32767 30 32767 32767 32767 32767 32767 32767 32767 
32767 32767 32767 32767 43 32767 92 32767 32767 32767 72 32767 32767 32767 32767 32767 32767 32767 67 32767 32767 32767 6 32767 32767 32767 32767 32767 
32767 22 56 69 77 32767 16 32767 32767 32767 32767 32767 96 32767 32767 32767 32767 32767 32767 32767 32767 26 18 32767 32767 22 32767 32767 
32767 97 26 32767 32 32767 32767 32767 32767 85 32767 32767 32767 32767 32767 32767 32767 15 32767 64 33 32767 32767 32767 32767 32767 19 10 
79 23 32767 76 19 98 32767 90 32767 32767 32767 32767 32767 32767 32767 32767 32767 32767 6 32767 31 32767 32767 32767 32767 48 32767 28 
32767 32767 32767 51 32767 32767 32767 32767 8 32767 32767 97 95 32767 32767 15 32767 32767 32767 32767 32 32767 32767 32767 1 32767 32767 32767 
40 32767 32767 32767 69 32767 6 32767 32767 32767 23 57 26 67 32767 32767 6 32767 32767 32767 32767 32767 32767 32767 32767 25 97 35 
99 32767 32767 32767 49 39 32767 32767 32767 32767 22 90 32767 32767 32767 64 32767 32767 32767 32767 32767 97 32767 32767 32767 51 32767 82 
38 32767 32767 32767 32767 32767 32767 32767 49 86 32767 31 30 32767 32767 33 31 32 32767 32767 32767 32767 32767 32767 32767 32767 32767 32767 
7 32767 49 32767 18 32767 32767 32767 62 32767 26 32767 32767 32767 26 32767 32767 32767 32767 97 32767 32767 32767 32767 32767 32767 67 32767 
32767 69 32767 32767 32767 32767 32767 32767 92 32767 33 32767 32767 6 18 32767 32767 32767 32767 32767 32767 32767 32767 32767 32767 32767 32767 95 
32767 32767 51 32767 32767 32767 32767 32767 83 32767 32767 32767 32767 32767 32767 32767 32767 32767 32767 32767 32767 32767 32767 32767 32767 43 32767 32767 
73 32767 32767 18 16 32767 35 32767 61 46 32767 32767 32767 32767 32767 32767 32767 1 32767 32767 32767 32767 32767 32767 32767 32767 32767 32767 
32767 32767 32767 32767 32767 81 83 32767 32767 32767 32767 27 32767 32767 22 32767 48 32767 25 51 32767 32767 32767 43 32767 32767 32767 32767 
32767 59 32767 32767 32767 32767 32767 32767 32767 37 32767 5 32767 32767 32767 19 32767 32767 97 32767 32767 67 32767 32767 32767 32767 32767 32767 
14 32767 32767 32767 32767 96 63 32767 33 32767 61 32767 32767 32767 32767 10 28 32767 35 82 32767 32767 95 32767 32767 32767 32767 32767 
EOF